10 10 10
50
7 1 7
2 7 7
8 7 1
5 9 8
6 7 9
3 8 4
5 4 1
10 4 8
7 6 5
9 8 10
4 5 2
3 3 3
10 2 3
9 2 7
7 8 5
1 2 3
2 4 9
2 7 9
7 3 9
5 2 10
1 10 7
5 1 1
8 8 9
1 4 2
5 4 8
2 3 8
4 3 6
1 9 9
1 5 5
4 8 4
4 2 1
10 1 4
2 10 7
1 2 4
3 2 2
8 3 4
4 3 5
7 10 4
4 7 1
9 7 8
10 7 4
9 9 3
4 5 9
8 5 10
4 4 6
5 3 2
3 5 3
8 5 8
9 6 4
1 1 4
